letting n_nurses=25
letting n_days=7
letting n_shift_types=4
letting max_covers=11
letting t_covers=87
letting covers=[9,2,2,0,11,3,2,0,6,0,7,0,6,4,0,0,11,6,0,0,3,5,0,0,7,1,2,0]
letting prefes=[1,1,1,1,1,1,1,1,1,1,1,1,2,2,1,2,2,3,2,2,1,1,1,1,1,1,1,1,1,1,1,1,2,4,2,2,4,3,3,3,1,2,2,2,2,1,2,2,1,1,1,1,1,1,1,1,2,3,3,3,1,1,1,1,1,3,3,3,2,1,2,2,1,1,1,1,2,1,1,2,2,3,2,2,1,1,1,1,1,1,1,1,1,3,3,3,2,2,2,1,2,1,2,2,2,1,1,2,1,1,1,1,2,1,1,1,2,1,2,2,1,3,3,3,1,2,2,2,1,1,1,1,2,1,1,2,2,3,2,2,1,1,1,1,2,4,2,2,1,3,3,3,2,2,1,2,2,3,2,2,2,1,1,2,2,1,2,2,2,1,1,1,2,1,2,2,1,3,3,3,2,2,1,2,2,1,2,2,2,4,4,2,2,3,2,2,2,1,1,1,2,1,2,2,4,3,3,3,1,2,2,2,2,1,2,2,2,1,1,2,2,1,2,2,1,1,1,1,2,1,2,2,4,3,3,3,2,1,2,2,1,1,1,1,2,4,4,2,1,1,1,1,2,1,1,1,2,1,2,2,1,3,3,3,2,2,2,1,2,3,2,2,2,1,1,2,2,1,2,2,2,1,1,1,2,1,2,2,1,3,3,3,2,2,1,2,2,1,2,2,2,1,1,2,2,1,2,2,2,1,1,1,2,4,2,2,4,3,3,3,2,2,2,2,2,1,2,2,2,1,1,2,2,1,2,2,2,3,3,3,2,1,2,2,1,3,3,3,2,1,2,2,2,1,2,2,2,4,4,2,2,1,2,2,2,1,1,1,2,1,2,2,1,1,1,1,1,1,2,2,1,1,1,1,1,1,1,1,2,1,2,2,2,3,3,3,1,1,1,1,1,3,3,3,2,2,2,2,2,1,2,2,2,1,1,2,2,1,2,2,2,1,1,1,2,4,2,2,1,1,1,1,2,2,2,2,2,1,2,2,2,1,1,2,2,1,2,2,2,1,1,1,2,4,2,2,1,3,3,3,2,2,2,2,2,1,2,2,2,1,1,2,2,1,2,2,2,1,1,1,2,1,2,2,1,3,3,3,2,1,2,2,2,1,2,2,1,1,1,1,1,1,1,1,2,3,3,3,2,1,2,2,1,3,3,3,2,2,2,1,2,3,2,2,1,4,4,1,2,3,2,2,2,3,3,3,2,1,2,2,1,3,3,3,2,2,2,1,2,1,2,2,2,1,1,2,2,1,2,2,2,1,1,1,2,1,2,2,1,3,3,3,2,2,2,2,2,1,2,2,2,1,1,2,2,1,2,2,2,1,1,1,2,1,2,2,4,3,3,3,2,2,2,2,2,1,2,2,2,4,4,2,2,1,2,2,2,1,1,1,2,1,2,2,1,3,3,3,1,2,2,2,1,1,1,1,2,1,1,2,2,3,2,2,2,1,1,1,1,1,1,1,1,1,1,1,2,2,1,2,2,1,2,2,2,1,1,2,2,1,2,2,2,1,1,1,2,1,2,2,1,1,1,1,2,2,2,1,2,3,2,2,2,1,1,2,2,1,2,2]
letting ub =  239
